c nIsolatedPIs 0
c maxPI 11
p cnf 459 1345
c gate 12 -2 10 0
-2 -12 0
10 -12 0
2 -10 12 0
c gate 13 9 10 0
9 -13 0
10 -13 0
-9 -10 13 0
c gate 14 8 13 0
8 -14 0
13 -14 0
-8 -13 14 0
c gate 15 -3 -14 0
-3 -15 0
-14 -15 0
3 14 15 0
c gate 16 -12 -15 0
-12 -16 0
-15 -16 0
12 15 16 0
c gate 17 -7 -10 0
-7 -17 0
-10 -17 0
7 10 17 0
c gate 18 7 10 0
7 -18 0
10 -18 0
-7 -10 18 0
c gate 19 -17 -18 0
-17 -19 0
-18 -19 0
17 18 19 0
c gate 20 8 9 0
8 -20 0
9 -20 0
-8 -9 20 0
c gate 21 -19 20 0
-19 -21 0
20 -21 0
19 -20 21 0
c gate 22 -10 -20 0
-10 -22 0
-20 -22 0
10 20 22 0
c gate 23 3 9 0
3 -23 0
9 -23 0
-3 -9 23 0
c gate 24 3 -10 0
3 -24 0
-10 -24 0
-3 10 24 0
c gate 25 -23 -24 0
-23 -25 0
-24 -25 0
23 24 25 0
c gate 26 -2 25 0
-2 -26 0
25 -26 0
2 -25 26 0
c gate 27 -22 26 0
-22 -27 0
26 -27 0
22 -26 27 0
c gate 28 -21 27 0
-21 -28 0
27 -28 0
21 -27 28 0
c gate 29 -16 -28 0
-16 -29 0
-28 -29 0
16 28 29 0
c gate 30 4 5 0
4 -30 0
5 -30 0
-4 -5 30 0
c gate 31 8 -9 0
8 -31 0
-9 -31 0
-8 9 31 0
c gate 32 -30 31 0
-30 -32 0
31 -32 0
30 -31 32 0
c gate 33 5 9 0
5 -33 0
9 -33 0
-5 -9 33 0
c gate 34 7 33 0
7 -34 0
33 -34 0
-7 -33 34 0
c gate 35 -7 -8 0
-7 -35 0
-8 -35 0
7 8 35 0
c gate 36 9 35 0
9 -36 0
35 -36 0
-9 -35 36 0
c gate 37 -34 -36 0
-34 -37 0
-36 -37 0
34 36 37 0
c gate 38 -32 37 0
-32 -38 0
37 -38 0
32 -37 38 0
c gate 39 4 7 0
4 -39 0
7 -39 0
-4 -7 39 0
c gate 40 1 39 0
1 -40 0
39 -40 0
-1 -39 40 0
c gate 41 7 -40 0
7 -41 0
-40 -41 0
-7 40 41 0
c gate 42 5 -8 0
5 -42 0
-8 -42 0
-5 8 42 0
c gate 43 -41 42 0
-41 -43 0
42 -43 0
41 -42 43 0
c gate 44 38 -43 0
38 -44 0
-43 -44 0
-38 43 44 0
c gate 45 -2 -7 0
-2 -45 0
-7 -45 0
2 7 45 0
c gate 46 3 -45 0
3 -46 0
-45 -46 0
-3 45 46 0
c gate 47 -44 -46 0
-44 -47 0
-46 -47 0
44 46 47 0
c gate 48 -2 -3 0
-2 -48 0
-3 -48 0
2 3 48 0
c gate 49 -11 48 0
-11 -49 0
48 -49 0
11 -48 49 0
c gate 50 29 -44 0
29 -50 0
-44 -50 0
-29 44 50 0
c gate 51 49 -50 0
49 -51 0
-50 -51 0
-49 50 51 0
c gate 52 -3 -29 0
-3 -52 0
-29 -52 0
3 29 52 0
c gate 53 3 29 0
3 -53 0
29 -53 0
-3 -29 53 0
c gate 54 -52 -53 0
-52 -54 0
-53 -54 0
52 53 54 0
c gate 55 2 11 0
2 -55 0
11 -55 0
-2 -11 55 0
c gate 56 -2 -11 0
-2 -56 0
-11 -56 0
2 11 56 0
c gate 57 -55 -56 0
-55 -57 0
-56 -57 0
55 56 57 0
c gate 58 -54 57 0
-54 -58 0
57 -58 0
54 -57 58 0
c gate 59 -11 29 0
-11 -59 0
29 -59 0
11 -29 59 0
c gate 60 2 -52 0
2 -60 0
-52 -60 0
-2 52 60 0
c gate 61 -59 60 0
-59 -61 0
60 -61 0
59 -60 61 0
c gate 62 -58 -61 0
-58 -62 0
-61 -62 0
58 61 62 0
c gate 63 -51 62 0
-51 -63 0
62 -63 0
51 -62 63 0
c gate 64 -11 -63 0
-11 -64 0
-63 -64 0
11 63 64 0
c gate 65 -47 -64 0
-47 -65 0
-64 -65 0
47 64 65 0
c gate 66 2 -3 0
2 -66 0
-3 -66 0
-2 3 66 0
c gate 67 -10 -11 0
-10 -67 0
-11 -67 0
10 11 67 0
c gate 68 48 67 0
48 -68 0
67 -68 0
-48 -67 68 0
c gate 69 -63 -68 0
-63 -69 0
-68 -69 0
63 68 69 0
c gate 70 -9 11 0
-9 -70 0
11 -70 0
9 -11 70 0
c gate 71 -13 -70 0
-13 -71 0
-70 -71 0
13 70 71 0
c gate 72 -44 -71 0
-44 -72 0
-71 -72 0
44 71 72 0
c gate 73 44 67 0
44 -73 0
67 -73 0
-44 -67 73 0
c gate 74 8 -73 0
8 -74 0
-73 -74 0
-8 73 74 0
c gate 75 -72 74 0
-72 -75 0
74 -75 0
72 -74 75 0
c gate 76 -11 -44 0
-11 -76 0
-44 -76 0
11 44 76 0
c gate 77 11 44 0
11 -77 0
44 -77 0
-11 -44 77 0
c gate 78 -76 -77 0
-76 -78 0
-77 -78 0
76 77 78 0
c gate 79 -9 -11 0
-9 -79 0
-11 -79 0
9 11 79 0
c gate 80 -8 -79 0
-8 -80 0
-79 -80 0
8 79 80 0
c gate 81 -78 80 0
-78 -81 0
80 -81 0
78 -80 81 0
c gate 82 10 11 0
10 -82 0
11 -82 0
-10 -11 82 0
c gate 83 -8 79 0
-8 -83 0
79 -83 0
8 -79 83 0
c gate 84 -10 83 0
-10 -84 0
83 -84 0
10 -83 84 0
c gate 85 -82 -84 0
-82 -85 0
-84 -85 0
82 84 85 0
c gate 86 -81 85 0
-81 -86 0
85 -86 0
81 -85 86 0
c gate 87 -75 86 0
-75 -87 0
86 -87 0
75 -86 87 0
c gate 88 -44 87 0
-44 -88 0
87 -88 0
44 -87 88 0
c gate 89 69 88 0
69 -89 0
88 -89 0
-69 -88 89 0
c gate 90 44 -87 0
44 -90 0
-87 -90 0
-44 87 90 0
c gate 91 -88 -90 0
-88 -91 0
-90 -91 0
88 90 91 0
c gate 92 -69 91 0
-69 -92 0
91 -92 0
69 -91 92 0
c gate 93 48 -92 0
48 -93 0
-92 -93 0
-48 92 93 0
c gate 94 -89 93 0
-89 -94 0
93 -94 0
89 -93 94 0
c gate 95 -63 94 0
-63 -95 0
94 -95 0
63 -94 95 0
c gate 96 -66 95 0
-66 -96 0
95 -96 0
66 -95 96 0
c gate 97 65 -96 0
65 -97 0
-96 -97 0
-65 96 97 0
c gate 98 -65 94 0
-65 -98 0
94 -98 0
65 -94 98 0
c gate 99 -9 -98 0
-9 -99 0
-98 -99 0
9 98 99 0
c gate 100 -97 99 0
-97 -100 0
99 -100 0
97 -99 100 0
c gate 101 9 11 0
9 -101 0
11 -101 0
-9 -11 101 0
c gate 102 63 101 0
63 -102 0
101 -102 0
-63 -101 102 0
c gate 103 -66 -102 0
-66 -103 0
-102 -103 0
66 102 103 0
c gate 104 -94 -103 0
-94 -104 0
-103 -104 0
94 103 104 0
c gate 105 -100 -104 0
-100 -105 0
-104 -105 0
100 104 105 0
c gate 106 29 -105 0
29 -106 0
-105 -106 0
-29 105 106 0
c gate 107 -29 94 0
-29 -107 0
94 -107 0
29 -94 107 0
c gate 108 -66 -95 0
-66 -108 0
-95 -108 0
66 95 108 0
c gate 109 9 -108 0
9 -109 0
-108 -109 0
-9 108 109 0
c gate 110 -107 -109 0
-107 -110 0
-109 -110 0
107 109 110 0
c gate 111 -11 -110 0
-11 -111 0
-110 -111 0
11 110 111 0
c gate 112 -106 -111 0
-106 -112 0
-111 -112 0
106 111 112 0
c gate 113 -6 -7 0
-6 -113 0
-7 -113 0
6 7 113 0
c gate 114 6 7 0
6 -114 0
7 -114 0
-6 -7 114 0
c gate 115 -113 -114 0
-113 -115 0
-114 -115 0
113 114 115 0
c gate 116 10 -115 0
10 -116 0
-115 -116 0
-10 115 116 0
c gate 117 -8 44 0
-8 -117 0
44 -117 0
8 -44 117 0
c gate 118 6 -8 0
6 -118 0
-8 -118 0
-6 8 118 0
c gate 119 -6 8 0
-6 -119 0
8 -119 0
6 -8 119 0
c gate 120 -118 -119 0
-118 -120 0
-119 -120 0
118 119 120 0
c gate 121 -19 -120 0
-19 -121 0
-120 -121 0
19 120 121 0
c gate 122 -117 121 0
-117 -122 0
121 -122 0
117 -121 122 0
c gate 123 7 44 0
7 -123 0
44 -123 0
-7 -44 123 0
c gate 124 -113 -118 0
-113 -124 0
-118 -124 0
113 118 124 0
c gate 125 -123 124 0
-123 -125 0
124 -125 0
123 -124 125 0
c gate 126 -122 -125 0
-122 -126 0
-125 -126 0
122 125 126 0
c gate 127 116 -126 0
116 -127 0
-126 -127 0
-116 126 127 0
c gate 128 -7 -44 0
-7 -128 0
-44 -128 0
7 44 128 0
c gate 129 -123 -128 0
-123 -129 0
-128 -129 0
123 128 129 0
c gate 130 -6 19 0
-6 -130 0
19 -130 0
6 -19 130 0
c gate 131 129 130 0
129 -131 0
130 -131 0
-129 -130 131 0
c gate 132 -127 -131 0
-127 -132 0
-131 -132 0
127 131 132 0
c gate 133 8 -132 0
8 -133 0
-132 -133 0
-8 132 133 0
c gate 134 8 -38 0
8 -134 0
-38 -134 0
-8 38 134 0
c gate 135 -126 -134 0
-126 -135 0
-134 -135 0
126 134 135 0
c gate 136 -133 -135 0
-133 -136 0
-135 -136 0
133 135 136 0
c gate 137 9 -136 0
9 -137 0
-136 -137 0
-9 136 137 0
c gate 138 -8 10 0
-8 -138 0
10 -138 0
8 -10 138 0
c gate 139 8 -10 0
8 -139 0
-10 -139 0
-8 10 139 0
c gate 140 -138 -139 0
-138 -140 0
-139 -140 0
138 139 140 0
c gate 141 -9 -119 0
-9 -141 0
-119 -141 0
9 119 141 0
c gate 142 -140 -141 0
-140 -142 0
-141 -142 0
140 141 142 0
c gate 143 -129 142 0
-129 -143 0
142 -143 0
129 -142 143 0
c gate 144 7 140 0
7 -144 0
140 -144 0
-7 -140 144 0
c gate 145 -7 139 0
-7 -145 0
139 -145 0
7 -139 145 0
c gate 146 -144 -145 0
-144 -146 0
-145 -146 0
144 145 146 0
c gate 147 6 -9 0
6 -147 0
-9 -147 0
-6 9 147 0
c gate 148 -146 147 0
-146 -148 0
147 -148 0
146 -147 148 0
c gate 149 -6 -10 0
-6 -149 0
-10 -149 0
6 10 149 0
c gate 150 36 149 0
36 -150 0
149 -150 0
-36 -149 150 0
c gate 151 -148 -150 0
-148 -151 0
-150 -151 0
148 150 151 0
c gate 152 -143 151 0
-143 -152 0
151 -152 0
143 -151 152 0
c gate 153 -137 152 0
-137 -153 0
152 -153 0
137 -152 153 0
c gate 154 3 -153 0
3 -154 0
-153 -154 0
-3 153 154 0
c gate 155 9 153 0
9 -155 0
153 -155 0
-9 -153 155 0
c gate 156 -7 155 0
-7 -156 0
155 -156 0
7 -155 156 0
c gate 157 -154 -156 0
-154 -157 0
-156 -157 0
154 156 157 0
c gate 158 2 -157 0
2 -158 0
-157 -158 0
-2 157 158 0
c gate 159 44 -153 0
44 -159 0
-153 -159 0
-44 153 159 0
c gate 160 37 -159 0
37 -160 0
-159 -160 0
-37 159 160 0
c gate 161 -2 -160 0
-2 -161 0
-160 -161 0
2 160 161 0
c gate 162 48 153 0
48 -162 0
153 -162 0
-48 -153 162 0
c gate 163 -154 -162 0
-154 -163 0
-162 -163 0
154 162 163 0
c gate 164 7 -163 0
7 -164 0
-163 -164 0
-7 163 164 0
c gate 165 -161 -164 0
-161 -165 0
-164 -165 0
161 164 165 0
c gate 166 -158 165 0
-158 -166 0
165 -166 0
158 -165 166 0
c gate 167 -23 166 0
-23 -167 0
166 -167 0
23 -166 167 0
c gate 168 -29 -167 0
-29 -168 0
-167 -168 0
29 167 168 0
c gate 169 -9 -153 0
-9 -169 0
-153 -169 0
9 153 169 0
c gate 170 -155 -169 0
-155 -170 0
-169 -170 0
155 169 170 0
c gate 171 -67 -82 0
-67 -171 0
-82 -171 0
67 82 171 0
c gate 172 -8 -171 0
-8 -172 0
-171 -172 0
8 171 172 0
c gate 173 -11 140 0
-11 -173 0
140 -173 0
11 -140 173 0
c gate 174 -172 -173 0
-172 -174 0
-173 -174 0
172 173 174 0
c gate 175 -170 -174 0
-170 -175 0
-174 -175 0
170 174 175 0
c gate 176 -44 153 0
-44 -176 0
153 -176 0
44 -153 176 0
c gate 177 -159 -176 0
-159 -177 0
-176 -177 0
159 176 177 0
c gate 178 67 177 0
67 -178 0
177 -178 0
-67 -177 178 0
c gate 179 10 78 0
10 -179 0
78 -179 0
-10 -78 179 0
c gate 180 -177 179 0
-177 -180 0
179 -180 0
177 -179 180 0
c gate 181 9 -180 0
9 -181 0
-180 -181 0
-9 180 181 0
c gate 182 -178 181 0
-178 -182 0
181 -182 0
178 -181 182 0
c gate 183 -10 -78 0
-10 -183 0
-78 -183 0
10 78 183 0
c gate 184 -67 -179 0
-67 -184 0
-179 -184 0
67 179 184 0
c gate 185 153 -184 0
153 -185 0
-184 -185 0
-153 184 185 0
c gate 186 -183 -185 0
-183 -186 0
-185 -186 0
183 185 186 0
c gate 187 82 -153 0
82 -187 0
-153 -187 0
-82 153 187 0
c gate 188 -9 -187 0
-9 -188 0
-187 -188 0
9 187 188 0
c gate 189 186 188 0
186 -189 0
188 -189 0
-186 -188 189 0
c gate 190 -182 -189 0
-182 -190 0
-189 -190 0
182 189 190 0
c gate 191 10 153 0
10 -191 0
153 -191 0
-10 -153 191 0
c gate 192 101 -191 0
101 -192 0
-191 -192 0
-101 191 192 0
c gate 193 8 -192 0
8 -193 0
-192 -193 0
-8 192 193 0
c gate 194 -190 193 0
-190 -194 0
193 -194 0
190 -193 194 0
c gate 195 -10 153 0
-10 -195 0
153 -195 0
10 -153 195 0
c gate 196 -11 -195 0
-11 -196 0
-195 -196 0
11 195 196 0
c gate 197 177 196 0
177 -197 0
196 -197 0
-177 -196 197 0
c gate 198 -187 -197 0
-187 -198 0
-197 -198 0
187 197 198 0
c gate 199 9 -198 0
9 -199 0
-198 -199 0
-9 198 199 0
c gate 200 -13 -67 0
-13 -200 0
-67 -200 0
13 67 200 0
c gate 201 -186 200 0
-186 -201 0
200 -201 0
186 -200 201 0
c gate 202 -8 -201 0
-8 -202 0
-201 -202 0
8 201 202 0
c gate 203 -199 202 0
-199 -203 0
202 -203 0
199 -202 203 0
c gate 204 -194 -203 0
-194 -204 0
-203 -204 0
194 203 204 0
c gate 205 -175 -204 0
-175 -205 0
-204 -205 0
175 204 205 0
c gate 206 -44 205 0
-44 -206 0
205 -206 0
44 -205 206 0
c gate 207 52 56 0
52 -207 0
56 -207 0
-52 -56 207 0
c gate 208 195 207 0
195 -208 0
207 -208 0
-195 -207 208 0
c gate 209 68 -208 0
68 -209 0
-208 -209 0
-68 208 209 0
c gate 210 -153 207 0
-153 -210 0
207 -210 0
153 -207 210 0
c gate 211 62 -210 0
62 -211 0
-210 -211 0
-62 210 211 0
c gate 212 48 59 0
48 -212 0
59 -212 0
-48 -59 212 0
c gate 213 -177 212 0
-177 -213 0
212 -213 0
177 -212 213 0
c gate 214 211 -213 0
211 -214 0
-213 -214 0
-211 213 214 0
c gate 215 209 214 0
209 -215 0
214 -215 0
-209 -214 215 0
c gate 216 -209 -214 0
-209 -216 0
-214 -216 0
209 214 216 0
c gate 217 -215 -216 0
-215 -217 0
-216 -217 0
215 216 217 0
c gate 218 44 -205 0
44 -218 0
-205 -218 0
-44 205 218 0
c gate 219 217 -218 0
217 -219 0
-218 -219 0
-217 218 219 0
c gate 220 -206 219 0
-206 -220 0
219 -220 0
206 -219 220 0
c gate 221 206 -217 0
206 -221 0
-217 -221 0
-206 217 221 0
c gate 222 -205 215 0
-205 -222 0
215 -222 0
205 -215 222 0
c gate 223 48 -222 0
48 -223 0
-222 -223 0
-48 222 223 0
c gate 224 -221 223 0
-221 -224 0
223 -224 0
221 -223 224 0
c gate 225 -220 224 0
-220 -225 0
224 -225 0
220 -224 225 0
c gate 226 168 -225 0
168 -226 0
-225 -226 0
-168 225 226 0
c gate 227 29 167 0
29 -227 0
167 -227 0
-29 -167 227 0
c gate 228 225 227 0
225 -228 0
227 -228 0
-225 -227 228 0
c gate 229 -226 -228 0
-226 -229 0
-228 -229 0
226 228 229 0
c gate 230 9 -229 0
9 -230 0
-229 -230 0
-9 229 230 0
c gate 231 -9 -168 0
-9 -231 0
-168 -231 0
9 168 231 0
c gate 232 -227 231 0
-227 -232 0
231 -232 0
227 -231 232 0
c gate 233 -225 232 0
-225 -233 0
232 -233 0
225 -232 233 0
c gate 234 -230 -233 0
-230 -234 0
-233 -234 0
230 233 234 0
c gate 235 11 -234 0
11 -235 0
-234 -235 0
-11 234 235 0
c gate 236 -11 214 0
-11 -236 0
214 -236 0
11 -214 236 0
c gate 237 225 -236 0
225 -237 0
-236 -237 0
-225 236 237 0
c gate 238 11 -211 0
11 -238 0
-211 -238 0
-11 211 238 0
c gate 239 -225 -238 0
-225 -239 0
-238 -239 0
225 238 239 0
c gate 240 9 -239 0
9 -240 0
-239 -240 0
-9 239 240 0
c gate 241 -237 240 0
-237 -241 0
240 -241 0
237 -240 241 0
c gate 242 -11 -225 0
-11 -242 0
-225 -242 0
11 225 242 0
c gate 243 11 225 0
11 -243 0
225 -243 0
-11 -225 243 0
c gate 244 -242 -243 0
-242 -244 0
-243 -244 0
242 243 244 0
c gate 245 -9 214 0
-9 -245 0
214 -245 0
9 -214 245 0
c gate 246 -244 245 0
-244 -246 0
245 -246 0
244 -245 246 0
c gate 247 -241 -246 0
-241 -247 0
-246 -247 0
241 246 247 0
c gate 248 29 -167 0
29 -248 0
-167 -248 0
-29 167 248 0
c gate 249 -247 248 0
-247 -249 0
248 -249 0
247 -248 249 0
c gate 250 9 -167 0
9 -250 0
-167 -250 0
-9 167 250 0
c gate 251 -9 166 0
-9 -251 0
166 -251 0
9 -166 251 0
c gate 252 -250 -251 0
-250 -252 0
-251 -252 0
250 251 252 0
c gate 253 -227 -252 0
-227 -253 0
-252 -253 0
227 252 253 0
c gate 254 -244 253 0
-244 -254 0
253 -254 0
244 -253 254 0
c gate 255 -236 -238 0
-236 -255 0
-238 -255 0
236 238 255 0
c gate 256 29 255 0
29 -256 0
255 -256 0
-29 -255 256 0
c gate 257 11 -29 0
11 -257 0
-29 -257 0
-11 29 257 0
c gate 258 -59 -257 0
-59 -258 0
-257 -258 0
59 257 258 0
c gate 259 -79 -101 0
-79 -259 0
-101 -259 0
79 101 259 0
c gate 260 258 259 0
258 -260 0
259 -260 0
-258 -259 260 0
c gate 261 236 260 0
236 -261 0
260 -261 0
-236 -260 261 0
c gate 262 -256 -261 0
-256 -262 0
-261 -262 0
256 261 262 0
c gate 263 -225 262 0
-225 -263 0
262 -263 0
225 -262 263 0
c gate 264 255 260 0
255 -264 0
260 -264 0
-255 -260 264 0
c gate 265 225 -264 0
225 -265 0
-264 -265 0
-225 264 265 0
c gate 266 167 -265 0
167 -266 0
-265 -266 0
-167 265 266 0
c gate 267 -263 266 0
-263 -267 0
266 -267 0
263 -266 267 0
c gate 268 79 226 0
79 -268 0
226 -268 0
-79 -226 268 0
c gate 269 252 -258 0
252 -269 0
-258 -269 0
-252 258 269 0
c gate 270 -242 269 0
-242 -270 0
269 -270 0
242 -269 270 0
c gate 271 -268 -270 0
-268 -271 0
-270 -271 0
268 270 271 0
c gate 272 -267 271 0
-267 -272 0
271 -272 0
267 -271 272 0
c gate 273 -254 272 0
-254 -273 0
272 -273 0
254 -272 273 0
c gate 274 -249 273 0
-249 -274 0
273 -274 0
249 -273 274 0
c gate 275 -235 274 0
-235 -275 0
274 -275 0
235 -274 275 0
c gate 276 112 275 0
112 -276 0
275 -276 0
-112 -275 276 0
c gate 277 -112 -275 0
-112 -277 0
-275 -277 0
112 275 277 0
c gate 278 -94 225 0
-94 -278 0
225 -278 0
94 -225 278 0
c gate 279 94 -225 0
94 -279 0
-225 -279 0
-94 225 279 0
c gate 280 7 23 0
7 -280 0
23 -280 0
-7 -23 280 0
c gate 281 6 48 0
6 -281 0
48 -281 0
-6 -48 281 0
c gate 282 -23 -281 0
-23 -282 0
-281 -282 0
23 281 282 0
c gate 283 -9 -48 0
-9 -283 0
-48 -283 0
9 48 283 0
c gate 284 282 -283 0
282 -284 0
-283 -284 0
-282 283 284 0
c gate 285 -280 -284 0
-280 -285 0
-284 -285 0
280 284 285 0
c gate 286 8 -285 0
8 -286 0
-285 -286 0
-8 285 286 0
c gate 287 7 8 0
7 -287 0
8 -287 0
-7 -8 287 0
c gate 288 -35 -287 0
-35 -288 0
-287 -288 0
35 287 288 0
c gate 289 -282 288 0
-282 -289 0
288 -289 0
282 -288 289 0
c gate 290 -286 -289 0
-286 -290 0
-289 -290 0
286 289 290 0
c gate 291 -23 290 0
-23 -291 0
290 -291 0
23 -290 291 0
c gate 292 2 -10 0
2 -292 0
-10 -292 0
-2 10 292 0
c gate 293 -12 -292 0
-12 -293 0
-292 -293 0
12 292 293 0
c gate 294 -291 -293 0
-291 -294 0
-293 -294 0
291 293 294 0
c gate 295 3 -294 0
3 -295 0
-294 -295 0
-3 294 295 0
c gate 296 291 293 0
291 -296 0
293 -296 0
-291 -293 296 0
c gate 297 33 -120 0
33 -297 0
-120 -297 0
-33 120 297 0
c gate 298 -6 -30 0
-6 -298 0
-30 -298 0
6 30 298 0
c gate 299 6 30 0
6 -299 0
30 -299 0
-6 -30 299 0
c gate 300 31 -299 0
31 -300 0
-299 -300 0
-31 299 300 0
c gate 301 -298 300 0
-298 -301 0
300 -301 0
298 -300 301 0
c gate 302 -297 -301 0
-297 -302 0
-301 -302 0
297 301 302 0
c gate 303 -20 -42 0
-20 -303 0
-42 -303 0
20 42 303 0
c gate 304 -33 -303 0
-33 -304 0
-303 -304 0
33 303 304 0
c gate 305 302 -304 0
302 -305 0
-304 -305 0
-302 304 305 0
c gate 306 -11 -305 0
-11 -306 0
-305 -306 0
11 305 306 0
c gate 307 259 288 0
259 -307 0
288 -307 0
-259 -288 307 0
c gate 308 -306 307 0
-306 -308 0
307 -308 0
306 -307 308 0
c gate 309 -8 -9 0
-8 -309 0
-9 -309 0
8 9 309 0
c gate 310 -307 -309 0
-307 -310 0
-309 -310 0
307 309 310 0
c gate 311 306 310 0
306 -311 0
310 -311 0
-306 -310 311 0
c gate 312 11 -288 0
11 -312 0
-288 -312 0
-11 288 312 0
c gate 313 -20 -309 0
-20 -313 0
-309 -313 0
20 309 313 0
c gate 314 312 -313 0
312 -314 0
-313 -314 0
-312 313 314 0
c gate 315 -311 -314 0
-311 -315 0
-314 -315 0
311 314 315 0
c gate 316 -308 315 0
-308 -316 0
315 -316 0
308 -315 316 0
c gate 317 7 -305 0
7 -317 0
-305 -317 0
-7 305 317 0
c gate 318 -4 -317 0
-4 -318 0
-317 -318 0
4 317 318 0
c gate 319 83 -318 0
83 -319 0
-318 -319 0
-83 318 319 0
c gate 320 4 317 0
4 -320 0
317 -320 0
-4 -317 320 0
c gate 321 319 -320 0
319 -321 0
-320 -321 0
-319 320 321 0
c gate 322 316 -321 0
316 -322 0
-321 -322 0
-316 321 322 0
c gate 323 296 322 0
296 -323 0
322 -323 0
-296 -322 323 0
c gate 324 -295 -323 0
-295 -324 0
-323 -324 0
295 323 324 0
c gate 325 296 -322 0
296 -325 0
-322 -325 0
-296 322 325 0
c gate 326 -294 -325 0
-294 -326 0
-325 -326 0
294 325 326 0
c gate 327 -11 -326 0
-11 -327 0
-326 -327 0
11 326 327 0
c gate 328 324 -327 0
324 -328 0
-327 -328 0
-324 327 328 0
c gate 329 -1 309 0
-1 -329 0
309 -329 0
1 -309 329 0
c gate 330 304 -329 0
304 -330 0
-329 -330 0
-304 329 330 0
c gate 331 -4 -5 0
-4 -331 0
-5 -331 0
4 5 331 0
c gate 332 -30 -331 0
-30 -332 0
-331 -332 0
30 331 332 0
c gate 333 329 332 0
329 -333 0
332 -333 0
-329 -332 333 0
c gate 334 -330 -333 0
-330 -334 0
-333 -334 0
330 333 334 0
c gate 335 302 334 0
302 -335 0
334 -335 0
-302 -334 335 0
c gate 336 39 -335 0
39 -336 0
-335 -336 0
-39 335 336 0
c gate 337 319 -336 0
319 -337 0
-336 -337 0
-319 336 337 0
c gate 338 316 -337 0
316 -338 0
-337 -338 0
-316 337 338 0
c gate 339 -3 -338 0
-3 -339 0
-338 -339 0
3 338 339 0
c gate 340 -11 -339 0
-11 -340 0
-339 -340 0
11 339 340 0
c gate 341 293 -340 0
293 -341 0
-340 -341 0
-293 340 341 0
c gate 342 -328 341 0
-328 -342 0
341 -342 0
328 -341 342 0
c gate 343 -10 291 0
-10 -343 0
291 -343 0
10 -291 343 0
c gate 344 2 -23 0
2 -344 0
-23 -344 0
-2 23 344 0
c gate 345 -20 344 0
-20 -345 0
344 -345 0
20 -344 345 0
c gate 346 -11 -345 0
-11 -346 0
-345 -346 0
11 345 346 0
c gate 347 -55 -346 0
-55 -347 0
-346 -347 0
55 346 347 0
c gate 348 -343 347 0
-343 -348 0
347 -348 0
343 -347 348 0
c gate 349 338 -348 0
338 -349 0
-348 -349 0
-338 348 349 0
c gate 350 82 345 0
82 -350 0
345 -350 0
-82 -345 350 0
c gate 351 -2 67 0
-2 -351 0
67 -351 0
2 -67 351 0
c gate 352 -291 351 0
-291 -352 0
351 -352 0
291 -351 352 0
c gate 353 -350 -352 0
-350 -353 0
-352 -353 0
350 352 353 0
c gate 354 -338 353 0
-338 -354 0
353 -354 0
338 -353 354 0
c gate 355 -3 -354 0
-3 -355 0
-354 -355 0
3 354 355 0
c gate 356 -349 355 0
-349 -356 0
355 -356 0
349 -355 356 0
c gate 357 -2 11 0
-2 -357 0
11 -357 0
2 -11 357 0
c gate 358 -3 10 0
-3 -358 0
10 -358 0
3 -10 358 0
c gate 359 -357 -358 0
-357 -359 0
-358 -359 0
357 358 359 0
c gate 360 171 359 0
171 -360 0
359 -360 0
-171 -359 360 0
c gate 361 -291 360 0
-291 -361 0
360 -361 0
291 -360 361 0
c gate 362 -3 -290 0
-3 -362 0
-290 -362 0
3 290 362 0
c gate 363 -70 -362 0
-70 -363 0
-362 -363 0
70 362 363 0
c gate 364 -3 11 0
-3 -364 0
11 -364 0
3 -11 364 0
c gate 365 -293 -364 0
-293 -365 0
-364 -365 0
293 364 365 0
c gate 366 -363 365 0
-363 -366 0
365 -366 0
363 -365 366 0
c gate 367 -361 -366 0
-361 -367 0
-366 -367 0
361 366 367 0
c gate 368 -356 367 0
-356 -368 0
367 -368 0
356 -367 368 0
c gate 369 -342 368 0
-342 -369 0
368 -369 0
342 -368 369 0
c gate 370 -322 -353 0
-322 -370 0
-353 -370 0
322 353 370 0
c gate 371 322 348 0
322 -371 0
348 -371 0
-322 -348 371 0
c gate 372 -370 -371 0
-370 -372 0
-371 -372 0
370 371 372 0
c gate 373 -327 372 0
-327 -373 0
372 -373 0
327 -372 373 0
c gate 374 -3 -373 0
-3 -374 0
-373 -374 0
3 373 374 0
c gate 375 11 -324 0
11 -375 0
-324 -375 0
-11 324 375 0
c gate 376 -361 -375 0
-361 -376 0
-375 -376 0
361 375 376 0
c gate 377 -374 376 0
-374 -377 0
376 -377 0
374 -376 377 0
c gate 378 -369 -377 0
-369 -378 0
-377 -378 0
369 377 378 0
c gate 379 369 377 0
369 -379 0
377 -379 0
-369 -377 379 0
c gate 380 -378 -379 0
-378 -380 0
-379 -380 0
378 379 380 0
c gate 381 49 153 0
49 -381 0
153 -381 0
-49 -153 381 0
c gate 382 -10 48 0
-10 -382 0
48 -382 0
10 -48 382 0
c gate 383 5 6 0
5 -383 0
6 -383 0
-5 -6 383 0
c gate 384 -5 -6 0
-5 -384 0
-6 -384 0
5 6 384 0
c gate 385 -383 -384 0
-383 -385 0
-384 -385 0
383 384 385 0
c gate 386 382 385 0
382 -386 0
385 -386 0
-382 -385 386 0
c gate 387 -82 -386 0
-82 -387 0
-386 -387 0
82 386 387 0
c gate 388 359 -387 0
359 -388 0
-387 -388 0
-359 387 388 0
c gate 389 8 -332 0
8 -389 0
-332 -389 0
-8 332 389 0
c gate 390 -9 -389 0
-9 -390 0
-389 -390 0
9 389 390 0
c gate 391 -10 -390 0
-10 -391 0
-390 -391 0
10 390 391 0
c gate 392 -11 -391 0
-11 -392 0
-391 -392 0
11 391 392 0
c gate 393 -116 392 0
-116 -393 0
392 -393 0
116 -392 393 0
c gate 394 -312 -393 0
-312 -394 0
-393 -394 0
312 393 394 0
c gate 395 -1 -39 0
-1 -395 0
-39 -395 0
1 39 395 0
c gate 396 -40 -395 0
-40 -396 0
-395 -396 0
40 395 396 0
c gate 397 84 -396 0
84 -397 0
-396 -397 0
-84 396 397 0
c gate 398 -394 -397 0
-394 -398 0
-397 -398 0
394 397 398 0
c gate 399 57 -398 0
57 -399 0
-398 -399 0
-57 398 399 0
c gate 400 -57 398 0
-57 -400 0
398 -400 0
57 -398 400 0
c gate 401 -399 -400 0
-399 -401 0
-400 -401 0
399 400 401 0
c gate 402 8 66 0
8 -402 0
66 -402 0
-8 -66 402 0
c gate 403 -24 -386 0
-24 -403 0
-386 -403 0
24 386 403 0
c gate 404 -402 403 0
-402 -404 0
403 -404 0
402 -403 404 0
c gate 405 2 -404 0
2 -405 0
-404 -405 0
-2 404 405 0
c gate 406 -2 403 0
-2 -406 0
403 -406 0
2 -403 406 0
c gate 407 -405 -406 0
-405 -407 0
-406 -407 0
405 406 407 0
c gate 408 -3 -56 0
-3 -408 0
-56 -408 0
3 56 408 0
c gate 409 407 408 0
407 -409 0
408 -409 0
-407 -408 409 0
c gate 410 -401 409 0
-401 -410 0
409 -410 0
401 -409 410 0
c gate 411 -388 -410 0
-388 -411 0
-410 -411 0
388 410 411 0
c gate 412 9 -411 0
9 -412 0
-411 -412 0
-9 411 412 0
c gate 413 -11 -398 0
-11 -413 0
-398 -413 0
11 398 413 0
c gate 414 -312 -413 0
-312 -414 0
-413 -414 0
312 413 414 0
c gate 415 -101 414 0
-101 -415 0
414 -415 0
101 -414 415 0
c gate 416 9 -404 0
9 -416 0
-404 -416 0
-9 404 416 0
c gate 417 -9 404 0
-9 -417 0
404 -417 0
9 -404 417 0
c gate 418 -416 -417 0
-416 -418 0
-417 -418 0
416 417 418 0
c gate 419 3 -418 0
3 -419 0
-418 -419 0
-3 418 419 0
c gate 420 -415 419 0
-415 -420 0
419 -420 0
415 -419 420 0
c gate 421 -3 -418 0
-3 -421 0
-418 -421 0
3 418 421 0
c gate 422 25 -421 0
25 -422 0
-421 -422 0
-25 421 422 0
c gate 423 414 422 0
414 -423 0
422 -423 0
-414 -422 423 0
c gate 424 -3 -9 0
-3 -424 0
-9 -424 0
3 9 424 0
c gate 425 -407 424 0
-407 -425 0
424 -425 0
407 -424 425 0
c gate 426 -401 425 0
-401 -426 0
425 -426 0
401 -425 426 0
c gate 427 -423 -426 0
-423 -427 0
-426 -427 0
423 426 427 0
c gate 428 -420 427 0
-420 -428 0
427 -428 0
420 -427 428 0
c gate 429 -412 428 0
-412 -429 0
428 -429 0
412 -428 429 0
c gate 430 -11 -393 0
-11 -430 0
-393 -430 0
11 393 430 0
c gate 431 406 430 0
406 -431 0
430 -431 0
-406 -430 431 0
c gate 432 -3 -312 0
-3 -432 0
-312 -432 0
3 312 432 0
c gate 433 -405 432 0
-405 -433 0
432 -433 0
405 -432 433 0
c gate 434 -431 433 0
-431 -434 0
433 -434 0
431 -433 434 0
c gate 435 55 404 0
55 -435 0
404 -435 0
-55 -404 435 0
c gate 436 24 -392 0
24 -436 0
-392 -436 0
-24 392 436 0
c gate 437 -435 -436 0
-435 -437 0
-436 -437 0
435 436 437 0
c gate 438 -434 437 0
-434 -438 0
437 -438 0
434 -437 438 0
c gate 439 9 -438 0
9 -439 0
-438 -439 0
-9 438 439 0
c gate 440 -57 394 0
-57 -440 0
394 -440 0
57 -394 440 0
c gate 441 57 -394 0
57 -441 0
-394 -441 0
-57 394 441 0
c gate 442 -407 -441 0
-407 -442 0
-441 -442 0
407 441 442 0
c gate 443 -440 442 0
-440 -443 0
442 -443 0
440 -442 443 0
c gate 444 -312 -404 0
-312 -444 0
-404 -444 0
312 404 444 0
c gate 445 -430 444 0
-430 -445 0
444 -445 0
430 -444 445 0
c gate 446 -3 -445 0
-3 -446 0
-445 -446 0
3 445 446 0
c gate 447 -443 446 0
-443 -447 0
446 -447 0
443 -446 447 0
c gate 448 -9 -24 0
-9 -448 0
-24 -448 0
9 24 448 0
c gate 449 -447 448 0
-447 -449 0
448 -449 0
447 -448 449 0
c gate 450 -439 -449 0
-439 -450 0
-449 -450 0
439 449 450 0
c gate 451 -429 -450 0
-429 -451 0
-450 -451 0
429 450 451 0
c gate 452 429 450 0
429 -452 0
450 -452 0
-429 -450 452 0
c gate 453 -451 -452 0
-451 -453 0
-452 -453 0
451 452 453 0
c gate 454 -381 -453 0
-381 -454 0
-453 -454 0
381 453 454 0
c gate 455 -380 454 0
-380 -455 0
454 -455 0
380 -454 455 0
c gate 456 -279 455 0
-279 -456 0
455 -456 0
279 -455 456 0
c gate 457 -278 456 0
-278 -457 0
456 -457 0
278 -456 457 0
c gate 458 -277 457 0
-277 -458 0
457 -458 0
277 -457 458 0
c gate 459 -276 458 0
-276 -459 0
458 -459 0
276 -458 459 0
c PO
-459 0
